scip/repair/build/egout0.lp
\ SCIP STATISTICS
\   Problem name     : EGOUT
\   Variables        : 141 (55 binary, 0 integer, 0 implicit integer, 86 continuous)
\   Constraints      : 98
\   Obj. scale       : 1
\   Obj. offset      : 0
Minimize
 Obj: +20.66 I.041042 +28.21 I.001... +18.57 I.001003 +8.45 I.002003 +21.16 I.002... +28.38 I.003005 +9.8 I.004005
      +23.29 I.004... +5.07 I.005007 +6.78 I.006007 +2.9 I.007008 +27.89 I.008... +10.03 I.008009 +14.74 I.010012
      +6.19 I.011012 +22.1 I.012... +15.82 I.012013 +11.33 I.013016 +5.79 I.014015 +3.9 I.015016 +24.79 I.016...
      +16.36 I.016017 +3.45 I.017018 +2.26 I.009018 +3.86 I.018019 +8.41 I.019024 +26.46 I.024... +16.01 I.023024
      +16.73 I.022023 +11.75 I.020022 +3.25 I.021022 +27.41 I.022... +5.98 I.024026 +21.88 I.025026 +43.71 I.025...
      +11.42 I.026027 +23.4 I.027... +7.5 I.027032 +6.73 I.030031 +5.92 I.031032 +9.7 I.029031 +12.67 I.028029
      +26.45 I.028... +2.71 I.032033 +5.89 I.033037 +9.85 I.036037 +8.5 I.034036 +9 I.035036 +2.27 I.037038
      +6.37 I.038040 +16.2 I.039040 +23.58 I.040... +29.93 I.041... +6.73 I.040041 +30.92 I.042... +0.979 F.001...
      +0.034 F.001003 +0.016 F.002003 +0.914 F.002... +0.057 F.003005 +0.016 F.004005 +0.969 F.004...
      +0.006 F.005007 +0.01 F.006007 +0.002 F.007008 +0.976 F.008... +0.017 F.008009 +0.027 F.010012 +0.009 F.011012
      +0.964 F.012... +0.025 F.012013 +0.015 F.013016 +0.01 F.014015 +0.006 F.015016 +0.97 F.016... +0.022 F.016017
      +0.003 F.017018 +0.002 F.009018 +0.004 F.018019 +0.969 F.019024 +0.021 F.024... +0.026 F.023024
      +0.022 F.022023 +0.005 F.020022 +0.971 F.021022 +0.004 F.022... +0.054 F.024026 +0.054 F.025026
      +1.017 F.025... +0.02 F.026027 +0.967 F.027... +0.011 F.027032 +0.012 F.030031 +0.004 F.031032 +0.012 F.029031
      +0.024 F.028029 +0.975 F.028... +0.002 F.032033 +0.004 F.033037 +0.018 F.036037 +0.016 F.034036
      +0.015 F.035036 +0.001 F.037038 +0.009 F.038040 +0.025 F.039040 +0.967 F.040... +0.98 F.041... +0.01 F.040041
      +0.035 F.041042 +0.978 F.042...
Subject to
 ...: +1 F....001 +1 F....002 +1 F....004 +1 F....006 +1 F....007 +1 F....009 +1 F....010 +1 F....011
  +1 F....013 +1 F....014 +1 F....015 +1 F....017 +1 F....019 +1 F....020 +1 F....021 +1 F....023 +1 F....025
  +1 F....026 +1 F....028 +1 F....029 +1 F....030 +1 F....031 +1 F....033 +1 F....034 +1 F....035 +1 F....036
  +1 F....038 +1 F....039 +1 F....040 +1 F....041 +1 F....042 -1 F.001... -1 F.002... -1 F.004... -1 F.008...
  -1 F.012... -1 F.016... -1 F.024... -1 F.022... -1 F.025... -1 F.027... -1 F.028... -1 F.040... -1 F.041...
  -1 F.042... = +0
 001: -1 F....001 +1 F.001... +1 F.001003 = +0
 002: -1 F....002 +1 F.002003 +1 F.002... = +0
 007: -1 F....007 -1 F.005007 -1 F.006007 +1 F.007008 = +0
 009: -1 F....009 -1 F.008009 +1 F.009018 = +0
 010: -1 F....010 +1 F.010012 = +0
 011: -1 F....011 +1 F.011012 = +0
 014: -1 F....014 +1 F.014015 = +0
 015: -1 F....015 -1 F.014015 +1 F.015016 = +0
 017: -1 F....017 -1 F.016017 +1 F.017018 = +0
 019: -1 F....019 -1 F.018019 +1 F.019024 = +0
 020: -1 F....020 +1 F.020022 = +0
 021: -1 F....021 +1 F.021022 = +0
 023: -1 F....023 +1 F.023024 -1 F.022023 = +0
 025: -1 F....025 +1 F.025026 +1 F.025... = +0
 026: -1 F....026 -1 F.024026 -1 F.025026 +1 F.026027 = +0
 029: -1 F....029 +1 F.029031 -1 F.028029 = +0
 030: -1 F....030 +1 F.030031 = +0
 031: -1 F....031 -1 F.030031 +1 F.031032 -1 F.029031 = +0
 033: -1 F....033 -1 F.032033 +1 F.033037 = +0
 034: -1 F....034 +1 F.034036 = +0
 035: -1 F....035 +1 F.035036 = +0
 036: -1 F....036 +1 F.036037 -1 F.034036 -1 F.035036 = +0
 038: -1 F....038 -1 F.037038 +1 F.038040 = +0
 041: -1 F....041 +1 F.041... -1 F.040041 +1 F.041042 = +0
 042: -1 F....042 -1 F.041042 +1 F.042... = +0
 008: -1 F.007008 +1 F.008... +1 F.008009 = +0
 012: -1 F.010012 -1 F.011012 +1 F.012... +1 F.012013 = +0
 016: -1 F.013016 -1 F.015016 +1 F.016... +1 F.016017 = +0
 018: -1 F.017018 -1 F.009018 +1 F.018019 = +0
 024: -1 F.019024 +1 F.024... -1 F.023024 +1 F.024026 = +0
 022: +1 F.022023 -1 F.020022 -1 F.021022 +1 F.022... = +0
 027: -1 F.026027 +1 F.027... +1 F.027032 = +0
 032: -1 F.027032 -1 F.031032 +1 F.032033 = +0
 037: -1 F.033037 -1 F.036037 +1 F.037038 = +0
 U.001...: -117.04 I.001... +1 F.001... <= +0
 U.001003: -117.04 I.001003 +1 F.001003 <= +0
 U.002003: -117.04 I.002003 +1 F.002003 <= +0
 U.002...: -117.04 I.002... +1 F.002... <= +0
 U.003005: -117.04 I.003005 +1 F.003005 <= +0
 U.004005: -117.04 I.004005 +1 F.004005 <= +0
 U.004...: -117.04 I.004... +1 F.004... <= +0
 U.005007: -117.04 I.005007 +1 F.005007 <= +0
 U.006007: -117.04 I.006007 +1 F.006007 <= +0
 U.007008: -117.04 I.007008 +1 F.007008 <= +0
 U.008...: -117.04 I.008... +1 F.008... <= +0
 U.008009: -117.04 I.008009 +1 F.008009 <= +0
 U.010012: -117.04 I.010012 +1 F.010012 <= +0
 U.011012: -117.04 I.011012 +1 F.011012 <= +0
 U.012...: -117.04 I.012... +1 F.012... <= +0
 U.012013: -117.04 I.012013 +1 F.012013 <= +0
 U.015016: -117.04 I.015016 +1 F.015016 <= +0
 U.016...: -117.04 I.016... +1 F.016... <= +0
 U.016017: -117.04 I.016017 +1 F.016017 <= +0
 U.017018: -117.04 I.017018 +1 F.017018 <= +0
 U.009018: -117.04 I.009018 +1 F.009018 <= +0
 U.018019: -117.04 I.018019 +1 F.018019 <= +0
 U.019024: -117.04 I.019024 +1 F.019024 <= +0
 U.024...: -117.04 I.024... +1 F.024... <= +0
 U.023024: -117.04 I.023024 +1 F.023024 <= +0
 U.022023: -117.04 I.022023 +1 F.022023 <= +0
 U.020022: -117.04 I.020022 +1 F.020022 <= +0
 U.021022: -117.04 I.021022 +1 F.021022 <= +0
 U.022...: -117.04 I.022... +1 F.022... <= +0
 U.024026: -117.04 I.024026 +1 F.024026 <= +0
 U.025026: -117.04 I.025026 +1 F.025026 <= +0
 U.025...: -117.04 I.025... +1 F.025... <= +0
 U.027032: -117.04 I.027032 +1 F.027032 <= +0
 U.030031: -117.04 I.030031 +1 F.030031 <= +0
 U.031032: -117.04 I.031032 +1 F.031032 <= +0
 U.029031: -117.04 I.029031 +1 F.029031 <= +0
 U.028029: -117.04 I.028029 +1 F.028029 <= +0
 U.028...: -117.04 I.028... +1 F.028... <= +0
 U.032033: -117.04 I.032033 +1 F.032033 <= +0
 U.033037: -117.04 I.033037 +1 F.033037 <= +0
 U.036037: -117.04 I.036037 +1 F.036037 <= +0
 U.034036: -117.04 I.034036 +1 F.034036 <= +0
 U.035036: -117.04 I.035036 +1 F.035036 <= +0
 U.037038: -117.04 I.037038 +1 F.037038 <= +0
 U.038040: -117.04 I.038040 +1 F.038040 <= +0
 U.039040: -117.04 I.039040 +1 F.039040 <= +0
 U.040...: -117.04 I.040... +1 F.040... <= +0
 U.041...: -117.04 I.041... +1 F.041... <= +0
 U.040041: -117.04 I.040041 +1 F.040041 <= +0
 U.041042: -117.04 I.041042 +1 F.041042 <= +0
 U.042...: -117.04 I.042... +1 F.042... <= +0
Bounds
 0 <= I.041042 <= 1
 0 <= I.001... <= 1
 0 <= I.001003 <= 1
 0 <= I.002003 <= 1
 0 <= I.002... <= 1
 0 <= I.003005 <= 1
 0 <= I.004005 <= 1
 0 <= I.004... <= 1
 0 <= I.005007 <= 1
 0 <= I.006007 <= 1
 0 <= I.007008 <= 1
 0 <= I.008... <= 1
 0 <= I.008009 <= 1
 0 <= I.010012 <= 1
 0 <= I.011012 <= 1
 0 <= I.012... <= 1
 0 <= I.012013 <= 1
 0 <= I.013016 <= 1
 0 <= I.014015 <= 1
 0 <= I.015016 <= 1
 0 <= I.016... <= 1
 0 <= I.016017 <= 1
 0 <= I.017018 <= 1
 0 <= I.009018 <= 1
 0 <= I.018019 <= 1
 0 <= I.019024 <= 1
 0 <= I.024... <= 1
 0 <= I.023024 <= 1
 0 <= I.022023 <= 1
 0 <= I.020022 <= 1
 0 <= I.021022 <= 1
 0 <= I.022... <= 1
 0 <= I.024026 <= 1
 0 <= I.025026 <= 1
 0 <= I.025... <= 1
 0 <= I.026027 <= 1
 0 <= I.027... <= 1
 0 <= I.027032 <= 1
 0 <= I.030031 <= 1
 0 <= I.031032 <= 1
 0 <= I.029031 <= 1
 0 <= I.028029 <= 1
 0 <= I.028... <= 1
 0 <= I.032033 <= 1
 0 <= I.033037 <= 1
 0 <= I.036037 <= 1
 0 <= I.034036 <= 1
 0 <= I.035036 <= 1
 0 <= I.037038 <= 1
 0 <= I.038040 <= 1
 0 <= I.039040 <= 1
 0 <= I.040... <= 1
 0 <= I.041... <= 1
 0 <= I.040041 <= 1
 0 <= I.042... <= 1
 2.45 <= F....001 <= 2.45
 0.61 <= F....002 <= 0.61
 7.91 <= F....004 <= 7.91
 4.54 <= F....006 <= 4.54
 1.14 <= F....007 <= 1.14
 0.28 <= F....009 <= 0.28
 1.13 <= F....010 <= 1.13
 21.46 <= F....011 <= 21.46
 4.64 <= F....013 <= 4.64
 0.31 <= F....014 <= 0.31
 1.24 <= F....015 <= 1.24
 0.07 <= F....017 <= 0.07
 2.41 <= F....019 <= 2.41
 0.39 <= F....020 <= 0.39
 7.41 <= F....021 <= 7.41
 0.07 <= F....023 <= 0.07
 19.22 <= F....025 <= 19.22
 10.49 <= F....026 <= 10.49
 0.88 <= F....028 <= 0.88
 5.7 <= F....029 <= 5.7
 0.28 <= F....030 <= 0.28
 0.28 <= F....031 <= 0.28
 0.19 <= F....033 <= 0.19
 0.19 <= F....034 <= 0.19
 0.28 <= F....035 <= 0.28
 0.57 <= F....036 <= 0.57
 5.3 <= F....038 <= 5.3
 5.32 <= F....039 <= 5.32
 0.76 <= F....040 <= 0.76
 5.08 <= F....041 <= 5.08
 6.44 <= F....042 <= 6.44
Binaries
 I.041042 I.001... I.001003 I.002003 I.002... I.003005 I.004005 I.004... I.005007 I.006007 I.007008 I.008...
 I.008009 I.010012 I.011012 I.012... I.012013 I.013016 I.014015 I.015016 I.016... I.016017 I.017018 I.009018
 I.018019 I.019024 I.024... I.023024 I.022023 I.020022 I.021022 I.022... I.024026 I.025026 I.025... I.026027
 I.027... I.027032 I.030031 I.031032 I.029031 I.028029 I.028... I.032033 I.033037 I.036037 I.034036 I.035036
 I.037038 I.038040 I.039040 I.040... I.041... I.040041 I.042...
End
